single conv
cell
  6.16840   6.16840   6.16840  90.00000  90.00000  90.00000
fractional
Cs        0.0000000      1.0000000      0.0002000       0.0000000
Pb        0.5000000      0.5000000      0.4983000       0.0000000
I         1.0000000      0.5000000      0.4992000       0.0000000
I         0.5000000      0.5000000      0.9960000       0.0000000
I         0.5000000     -0.0400000      0.4992000       0.0000000
supercell 1 1 1
library peros
