single conv
cell
  6.60013   6.60013   6.60013  90.00000  90.00000  90.00000
fractional
Cs        0.0000000      1.0000000      0.0001673       0.0000000
Pb        0.5000000      0.5000000      0.4982570       0.0000000
I         1.0000000      0.5000000      0.4992092       0.0000000
I         0.5000000      0.0000000      0.4992092       0.0000000
I         0.5000000      0.5000000      0.9959637       0.0000000
supercell 1 1 1
library peros
